NAME: I4258-n31-k4
COMMENT : (Fake et al, No of trucks: 4, Optimal value: )
TYPE : CVRP
DIMENSION : 31
EDGE_WEIGHT_TYPE : EUC_2D
CAPACITY : 44
NODE_COORD_SECTION
1 441 956
2 426 972
3 303 152
4 712 178
5 531 718
6 923 677
7 488 995
8 928 627
9 297 312
10 704 849
11 803 17
12 939 156
13 263 146
14 640 902
15 845 431
16 239 393
17 27 474
18 664 551
19 228 685
20 175 83
21 848 169
22 787 820
23 578 182
24 204 395
25 95 899
26 521 838
27 338 291
28 732 564
29 522 557
30 607 90
31 673 196
DEMAND_SECTION
1 0
2 1
3 1
4 6
5 1
6 7
7 1
8 9
9 7
10 6
11 10
12 2
13 5
14 4
15 2
16 5
17 1
18 4
19 4
20 5
21 10
22 4
23 9
24 7
25 3
26 5
27 5
28 2
29 9
30 6
31 3
DEPOT_SECTION
 1
 -1
 EOF 